183 5
10 10 10 10 10 

0 0 0 0 0 0 2 2 14 
0 0 0 0 0 0 2 3 36 
7 0 0 0 0 1 4 12 11 5 4 
3 0 0 0 0 3 3 10 9 7 
3 0 0 0 0 1 1 6 
10 0 0 0 0 2 1 7 
10 0 0 0 0 2 1 8 
7 0 0 0 0 4 1 13 
2 0 0 0 0 2 1 13 
4 0 0 0 0 3 1 13 
5 0 0 0 0 5 1 13 
3 0 0 0 0 2 1 13 
0 0 0 0 0 0 1 26 
0 0 0 0 0 0 2 15 18 
8 0 0 0 1 0 3 24 23 16 
10 0 0 0 4 0 1 17 
10 0 0 0 3 0 3 22 21 19 
9 0 0 0 3 0 2 24 23 
5 0 0 0 2 0 1 20 
4 0 0 0 2 0 1 25 
6 0 0 0 5 0 1 25 
6 0 0 0 1 0 1 25 
6 0 0 0 1 0 2 25 161 
10 0 0 0 3 0 1 25 
0 0 0 0 0 0 1 26 
0 0 0 0 0 0 2 27 39 
0 0 0 0 0 0 3 28 32 34 
10 0 0 0 1 0 2 31 29 
7 0 0 0 1 0 2 37 30 
2 0 0 0 4 0 2 36 33 
4 0 0 0 2 0 2 37 33 
1 0 0 0 2 0 2 36 33 
10 0 0 0 2 0 1 35 
10 0 0 0 3 0 1 35 
9 0 0 0 2 0 1 38 
4 0 0 0 3 0 1 38 
5 0 0 0 5 0 1 38 
0 0 0 0 0 0 2 81 113 
0 0 0 0 0 0 2 40 42 
1 1 1 1 0 1 1 41 
5 3 2 2 0 2 2 44 43 
5 3 2 2 0 7 2 45 43 
5 2 2 1 0 5 4 55 48 47 46 
2 3 2 2 0 3 3 48 47 45 
6 3 1 3 0 1 1 46 
10 3 1 2 0 3 3 51 50 49 
9 3 3 4 0 1 2 52 50 
9 3 2 4 0 2 2 52 50 
5 1 2 1 0 1 2 56 52 
1 1 4 3 0 4 2 56 53 
9 3 2 2 0 3 2 56 53 
3 3 1 3 0 2 1 53 
9 1 1 3 0 3 1 54 
4 4 4 2 0 4 3 61 58 57 
1 2 5 3 0 5 2 61 56 
5 3 2 3 0 4 2 60 59 
2 3 2 1 0 2 3 64 62 60 
5 1 4 2 0 4 1 59 
9 4 2 3 0 3 3 65 64 62 
10 3 4 2 0 2 4 70 68 66 65 
9 4 4 2 0 3 3 68 66 64 
6 2 2 4 0 2 1 63 
5 4 5 2 0 2 2 68 66 
8 4 4 4 0 1 3 71 70 67 
3 2 1 2 0 3 2 71 69 
2 1 4 1 0 1 1 67 
10 3 2 3 0 3 2 72 69 
6 2 3 5 0 1 2 74 71 
2 2 4 3 0 1 2 74 73 
4 3 1 1 0 1 2 74 73 
5 2 1 2 0 1 1 72 
1 3 2 2 0 1 2 77 75 
2 3 2 2 0 3 2 77 75 
9 2 1 2 0 3 3 79 77 76 
3 2 3 4 0 3 2 79 76 
5 1 4 5 0 3 1 78 
6 2 4 2 0 2 1 78 
5 3 1 3 0 2 1 80 
6 2 3 2 0 2 1 80 
0 0 0 0 0 0 1 183 
0 0 0 0 0 0 3 82 83 88 
6 1 0 1 1 0 2 93 84 
7 3 0 1 2 0 2 93 84 
6 3 0 3 2 0 2 89 85 
8 2 0 2 5 0 2 91 86 
4 5 0 5 4 0 1 87 
7 1 0 4 1 0 3 98 97 90 
6 3 0 1 4 0 2 93 92 
4 1 0 2 4 0 1 91 
10 3 0 1 3 0 1 92 
4 3 0 3 3 0 1 92 
7 2 0 1 3 0 3 104 100 94 
10 1 0 2 2 0 2 97 94 
10 1 0 4 5 0 1 95 
3 4 0 3 1 0 2 103 96 
10 3 0 1 2 0 1 99 
3 3 0 2 2 0 1 99 
9 3 0 4 2 0 1 99 
8 2 0 3 1 0 2 111 101 
1 2 0 1 2 0 2 111 101 
1 5 0 5 2 0 2 106 102 
8 1 0 2 5 0 4 110 109 107 105 
5 3 0 2 2 0 2 107 105 
8 4 0 5 2 0 2 111 109 
5 1 0 2 3 0 1 108 
2 2 0 3 3 0 1 107 
5 1 0 3 3 0 1 112 
1 1 0 4 1 0 1 112 
2 2 0 2 2 0 1 112 
8 4 0 1 1 0 1 112 
9 5 0 2 2 0 1 112 
0 0 0 0 0 0 1 183 
0 0 0 0 0 0 1 114 
4 0 0 0 0 1 2 116 115 
10 0 0 0 0 2 3 119 118 117 
1 0 0 0 0 2 2 118 117 
5 0 0 0 0 1 3 123 122 121 
8 0 0 0 0 4 2 122 120 
4 0 0 0 0 1 2 122 120 
10 0 0 0 0 3 1 121 
6 0 0 0 0 1 1 124 
5 0 0 0 0 5 1 124 
4 0 0 0 0 5 1 124 
0 0 0 0 0 0 2 125 137 
0 0 0 0 0 0 2 126 129 
10 0 1 0 0 0 1 127 
10 0 4 0 0 0 1 128 
1 0 1 0 0 0 3 133 132 131 
3 0 2 0 0 0 2 132 130 
6 0 3 0 0 0 1 131 
2 0 3 0 0 0 1 134 
4 0 5 0 0 0 1 135 
2 0 2 0 0 0 1 134 
9 0 2 0 0 0 1 136 
10 0 2 0 0 0 1 136 
0 0 0 0 0 0 2 159 171 
0 0 0 0 0 0 2 138 139 
5 1 0 0 0 1 2 142 141 
1 4 0 0 0 1 2 144 140 
5 1 0 0 0 4 1 141 
9 3 0 0 0 1 3 152 147 143 
7 1 0 0 0 4 3 147 145 144 
5 2 0 0 0 3 1 145 
5 2 0 0 0 2 3 155 149 148 
9 2 0 0 0 3 1 146 
10 2 0 0 0 3 3 155 154 148 
3 3 0 0 0 2 3 155 154 148 
4 3 0 0 0 1 2 151 150 
9 3 0 0 0 4 2 154 153 
1 2 0 0 0 5 1 153 
7 4 0 0 0 3 1 153 
4 2 0 0 0 1 1 154 
9 4 0 0 0 1 1 156 
4 3 0 0 0 2 1 156 
3 3 0 0 0 4 1 157 
5 2 0 0 0 2 1 158 
7 3 0 0 0 3 1 158 
0 0 0 0 0 0 1 183 
0 0 0 0 0 0 4 160 162 163 169 
5 1 0 0 0 0 2 164 161 
2 3 0 0 0 0 2 168 165 
9 2 0 0 0 0 2 166 164 
1 2 0 0 0 0 2 166 164 
9 2 0 0 0 0 2 168 167 
5 5 0 0 0 0 1 166 
9 5 0 0 0 0 1 167 
8 2 0 0 0 0 1 170 
2 2 0 0 0 0 1 170 
2 1 0 0 0 0 1 170 
0 0 0 0 0 0 1 183 
0 0 0 0 0 0 4 172 173 174 175 
8 1 0 0 0 0 2 178 176 
3 2 0 0 0 0 2 178 176 
9 1 0 0 0 0 2 178 176 
4 2 0 0 0 0 1 176 
10 1 0 0 0 0 1 177 
4 4 0 0 0 0 2 180 179 
4 2 0 0 0 0 2 180 179 
6 4 0 0 0 0 1 181 
8 7 0 0 0 0 1 181 
6 1 0 0 0 0 1 182 
0 0 0 0 0 0 1 183 
0 0 0 0 0 0 0 
